p cnf 16 25
5 9 11 
5 -9 10 
-5 -9 -10 
-5 9 -11 
6 -9 -11 
6 9 12 
-6 -9 11 
-6 9 -12 
7 9 13 
7 -9 12 
-7 -9 -12 
-7 9 -13 
8 9 14 
8 -9 13 
-8 -9 -13 
-8 9 -14 
15 
1 5 
-1 -5 
2 6 
-2 -6 
3 7 
-3 -7 
4 8 
-4 -8 

